minizinc/sudoku_problems2/sudoku_p70.dzn
%
% sudoku_p70.dzn
% See http://www.hakank.org/minizinc/sudoku_gcc.mzn
% 
% This problem is problem 70 from
% Gecode's sudoku.cpp
% http://www.gecode.org/gecode-doc-latest/sudoku_8cpp-source.html
% 
x = array2d(1..n, 1..n, [   
% http://janko.at/Raetsel/Sudoku/517.a.htm
% 70
  _, 15, 14,  6,  _, 10,  _,  8,  _,  _,  _,  _,  _,  _,  1,  _,
  1,  4,  5,  _,  _,  7,  _, 14,  _,  _, 15,  _,  _,  _,  6,  8,
  _,  _,  _, 12,  _,  4,  _,  _, 14, 16,  8,  2,  _,  _,  5, 15,
  _,  _,  _,  _,  5, 15, 13,  _,  7, 11,  1,  _,  _, 12,  _,  4,
  _,  _,  4,  _,  8,  2, 10,  _, 12,  _,  _,  1, 11,  _,  _,  _,
  _,  8, 12,  7,  _,  _,  5,  _,  _,  _,  _, 10, 13,  2,  4, 16,
  _,  _,  1, 15,  _,  _,  9,  _, 16,  8,  3, 11, 10,  _,  _,  _,
  _,  _, 10,  9, 15,  _, 14,  6, 13,  _,  _,  _,  _,  _,  7,  1,
 15,  9,  _,  _,  _,  _,  _,  5,  3, 12,  _,  7,  1,  8,  _,  _,
  _,  _,  _,  3,  2,  1, 12, 13,  _,  6,  _,  _,  7,  4,  _,  _,
 10,  1,  7,  2,  6,  _,  _,  _,  _,  4,  _,  _, 16, 15, 12,  _,
  _,  _,  _,  4,  9,  _,  _, 15,  _,  1, 10,  8,  _, 14,  _,  _,
 13,  _, 15,  _,  _,  6,  2, 11,  _,  5,  9,  3,  _,  _,  _,  _,
  4, 11,  _,  _, 13,  8,  3, 10,  _,  _,  2,  _,  5,  _,  _,  _,
  8,  7,  _,  _,  _,  5,  _,  _, 11,  _,  4,  _,  _,  9,  3,  6,
  _,  6,  _,  _,  _,  _,  _,  _,  8,  _,  7,  _, 12, 11, 13,  _
]);

n = 16;


